<number of tasks>
50

<cycle time>
1000

<order strength>
0.897


<task times>
1 101
2 406
3 96
4 427
5 214
6 524
7 271
8 150
9 57
10 361
11 42
12 527
13 28
14 439
15 338
16 127
17 248
18 272
19 243
20 76
21 213
22 294
23 133
24 307
25 431
26 263
27 583
28 326
29 151
30 257
31 257
32 215
33 141
34 80
35 523
36 118
37 182
38 170
39 71
40 72
41 77
42 292
43 101
44 231
45 442
46 128
47 31
48 75
49 329
50 170

<precedence relations>
1,3
1,4
2,3
2,4
3,5
3,6
3,7
4,5
4,6
4,7
5,8
5,9
5,10
6,8
6,9
6,10
7,8
7,9
7,10
8,11
8,12
8,13
9,11
9,12
9,13
10,11
10,12
10,13
11,14
11,15
11,16
12,14
12,15
12,16
13,14
13,15
13,16
14,17
14,18
14,19
14,20
15,17
15,18
15,20
16,17
16,18
16,19
16,20
17,21
17,22
18,21
19,21
19,22
20,21
20,22
21,23
21,24
21,25
22,23
22,24
22,25
23,26
23,27
24,26
24,27
25,35
25,39
25,41
26,28
26,29
27,28
27,29
28,30
28,31
28,32
28,33
29,30
29,31
30,40
31,34
31,36
32,35
33,34
33,44
33,46
34,38
34,50
35,37
36,37
37,40
38,39
38,41
39,47
40,42
40,43
41,45
42,44
42,47
43,44
43,45
43,46
45,48
45,49
46,49
46,50
47,48
47,49

<end>
